clingo version 5.2.2
Reading from ...loring/instances/3-Insertions_3-k_8.lp ...
Solving...
Optimization: 298719
Optimization: 291899
Optimization: 286234
Optimization: 270634
Optimization: 268525
Optimization: 263533
Optimization: 262378
Optimization: 259738
Optimization: 259646
Optimization: 259324
Optimization: 243582
Optimization: 241052
Optimization: 238268
Optimization: 238249
Optimization: 238241
Optimization: 238147
Optimization: 197008
Optimization: 180366
Optimization: 175861
Optimization: 162876
Optimization: 160916
Optimization: 157964
Optimization: 156716
Optimization: 148294
Optimization: 147902
Optimization: 146639
Optimization: 140858
Optimization: 135248
Optimization: 134483
Optimization: 131941
Optimization: 131873
Optimization: 131519
Optimization: 130991
Optimization: 130988
Optimization: 130701
Optimization: 130680
Optimization: 130318
Optimization: 130174
Optimization: 130120
Optimization: 130048
Optimization: 129968
Optimization: 129951
Optimization: 129896
Optimization: 129891
Optimization: 129880
Optimization: 129788
Optimization: 129781
Optimization: 129751
Optimization: 129741
Optimization: 129739
Optimization: 129734
Optimization: 129732
Optimization: 129709
Optimization: 129702
Optimization: 129572
Optimization: 129571
Optimization: 129537
Optimization: 129534
Optimization: 129510
Optimization: 129505
Optimization: 129502
Optimization: 129479
Optimization: 129382
Optimization: 129370
Optimization: 129367
Optimization: 129366
Optimization: 129362
Optimization: 129360
Optimization: 129356
Optimization: 129339
Optimization: 129328
Optimization: 129324
Optimization: 129320
Optimization: 129318
Optimization: 129317
Optimization: 129315
Optimization: 129314
Optimization: 129312
Optimization: 129310
Optimization: 129306
Optimization: 129304
Optimization: 129272
Optimization: 129271
Optimization: 129261
Optimization: 129259
Optimization: 129258
Optimization: 129240
Optimization: 129237
Progression : [    12;129237] (Error: 10768.8)
Progression : [    17;129237] (Error: 7601.18)
Progression : [    18;129237] (Error: 7178.83)
Progression : [    19;129237] (Error: 6800.95)
Optimization: 129227
Optimization: 129211
Optimization: 129209
Optimization: 129202
Optimization: 129194
Optimization: 129193
Progression : [    20;129193] (Error: 6458.65)
Progression : [    21;129193] (Error: 6151.05)
Progression : [    22;129193] (Error: 5871.41)
Progression : [    23;129193] (Error: 5616.09)
Optimization: 129184
Progression : [    24;129184] (Error: 5381.67)
Progression : [    25;129184] (Error: 5166.36)
Progression : [    26;129184] (Error: 4967.62)
Progression : [    27;129184] (Error: 4783.59)
Progression : [    28;129184] (Error: 4612.71)
Progression : [    29;129184] (Error: 4453.62)
Progression : [    30;129184] (Error: 4305.13)
Progression : [    31;129184] (Error: 4166.23)
Progression : [    32;129184] (Error: 4036)
Progression : [    33;129184] (Error: 3913.67)
Progression : [    35;129184] (Error: 3689.97)
Progression : [    36;129184] (Error: 3587.44)
Progression : [    37;129184] (Error: 3490.46)
Progression : [    38;129184] (Error: 3398.58)
Optimization: 129182
Optimization: 129173
Optimization: 129164
Progression : [    39;129164] (Error: 3310.9)
Progression : [    40;129164] (Error: 3228.1)
Progression : [    41;129164] (Error: 3149.34)
Progression : [    42;129164] (Error: 3074.33)
Optimization: 129160
Optimization: 129156
Progression : [    43;129156] (Error: 3002.63)
Progression : [    44;129156] (Error: 2934.36)
Progression : [    45;129156] (Error: 2869.13)
Progression : [    46;129156] (Error: 2806.74)
Progression : [    47;129156] (Error: 2747)
Progression : [    48;129156] (Error: 2689.75)
Progression : [    49;129156] (Error: 2634.84)
Progression : [    50;129156] (Error: 2582.12)
Progression : [    51;129156] (Error: 2531.47)
Progression : [    52;129156] (Error: 2482.77)
Progression : [    53;129156] (Error: 2435.91)
Progression : [    54;129156] (Error: 2390.78)
Progression : [    55;129156] (Error: 2347.29)
Progression : [    56;129156] (Error: 2305.36)
Progression : [    57;129156] (Error: 2264.89)
Progression : [    58;129156] (Error: 2225.83)
Progression : [    59;129156] (Error: 2188.08)
Progression : [    60;129156] (Error: 2151.6)
Progression : [    61;129156] (Error: 2116.31)
Progression : [    62;129156] (Error: 2082.16)
Progression : [    63;129156] (Error: 2049.1)
Progression : [    64;129156] (Error: 2017.06)
Progression : [    65;129156] (Error: 1986.02)
Progression : [    66;129156] (Error: 1955.91)
Progression : [    67;129156] (Error: 1926.7)
Progression : [    68;129156] (Error: 1898.35)
Progression : [    69;129156] (Error: 1870.83)
Progression : [    70;129156] (Error: 1844.09)
Progression : [    71;129156] (Error: 1818.1)
Progression : [    72;129156] (Error: 1792.83)
Progression : [    73;129156] (Error: 1768.26)
Progression : [    74;129156] (Error: 1744.35)
Progression : [    75;129156] (Error: 1721.08)
Progression : [    76;129156] (Error: 1698.42)
Progression : [    77;129156] (Error: 1676.35)
Progression : [    78;129156] (Error: 1654.85)
Progression : [    79;129156] (Error: 1633.89)
Progression : [    80;129156] (Error: 1613.45)
Progression : [    81;129156] (Error: 1593.52)
Progression : [    82;129156] (Error: 1574.07)
Progression : [    83;129156] (Error: 1555.1)
Progression : [    84;129156] (Error: 1536.57)
Progression : [    85;129156] (Error: 1518.48)
Progression : [    86;129156] (Error: 1500.81)
Progression : [    87;129156] (Error: 1483.55)
Progression : [    88;129156] (Error: 1466.68)
Progression : [    89;129156] (Error: 1450.19)
Progression : [    90;129156] (Error: 1434.07)
Progression : [    91;129156] (Error: 1418.3)
Progression : [    92;129156] (Error: 1402.87)
Progression : [    93;129156] (Error: 1387.77)
Progression : [    94;129156] (Error: 1373)
Progression : [    95;129156] (Error: 1358.54)
Progression : [    96;129156] (Error: 1344.38)
Progression : [    97;129156] (Error: 1330.51)
Progression : [    98;129156] (Error: 1316.92)
Progression : [    99;129156] (Error: 1303.61)
Progression : [   100;129156] (Error: 1290.56)
Progression : [   101;129156] (Error: 1277.77)
Progression : [   102;129156] (Error: 1265.24)
Progression : [   103;129156] (Error: 1252.94)
Progression : [   104;129156] (Error: 1240.88)
Progression : [   105;129156] (Error: 1229.06)
Progression : [   106;129156] (Error: 1217.45)
Progression : [   107;129156] (Error: 1206.07)
Progression : [   108;129156] (Error: 1194.89)
Progression : [   109;129156] (Error: 1183.92)
Progression : [   110;129156] (Error: 1173.15)
Progression : [   111;129156] (Error: 1162.57)
Progression : [   112;129156] (Error: 1152.18)
Progression : [   113;129156] (Error: 1141.97)
Progression : [   114;129156] (Error: 1131.95)
Progression : [   115;129156] (Error: 1122.1)
Progression : [   116;129156] (Error: 1112.41)
Progression : [   117;129156] (Error: 1102.9)
Progression : [   118;129156] (Error: 1093.54)
Progression : [   119;129156] (Error: 1084.34)
Progression : [   120;129156] (Error: 1075.3)
Progression : [   121;129156] (Error: 1066.4)
Progression : [   122;129156] (Error: 1057.66)
Progression : [   124;129156] (Error: 1040.58)
Progression : [   125;129156] (Error: 1032.25)
Progression : [   126;129156] (Error: 1024.05)
Progression : [   127;129156] (Error: 1015.98)
Progression : [   128;129156] (Error: 1008.03)
Progression : [   129;129156] (Error: 1000.21)
Progression : [   130;129156] (Error: 992.508)
Progression : [   131;129156] (Error: 984.924)
Progression : [   132;129156] (Error: 977.455)
Progression : [   133;129156] (Error: 970.098)
Progression : [   134;129156] (Error: 962.851)
Progression : [   135;129156] (Error: 955.711)
Progression : [   136;129156] (Error: 948.676)
Progression : [   137;129156] (Error: 941.745)
Progression : [   138;129156] (Error: 934.913)
Progression : [   139;129156] (Error: 928.18)
Progression : [   140;129156] (Error: 921.543)
Progression : [   141;129156] (Error: 915)
Progression : [   142;129156] (Error: 908.549)
Progression : [   143;129156] (Error: 902.189)
Progression : [   144;129156] (Error: 895.917)
Progression : [   145;129156] (Error: 889.731)
Progression : [   146;129156] (Error: 883.63)
Progression : [   147;129156] (Error: 877.612)
Progression : [   148;129156] (Error: 871.676)
Progression : [   149;129156] (Error: 865.819)
Progression : [   150;129156] (Error: 860.04)
Progression : [   152;129156] (Error: 848.711)
Progression : [   153;129156] (Error: 843.157)
Progression : [   154;129156] (Error: 837.675)
Progression : [   155;129156] (Error: 832.265)
Progression : [   156;129156] (Error: 826.923)
Progression : [   157;129156] (Error: 821.65)
Progression : [   158;129156] (Error: 816.443)
Progression : [   159;129156] (Error: 811.302)
Progression : [   160;129156] (Error: 806.225)
Progression : [   161;129156] (Error: 801.211)
Progression : [   162;129156] (Error: 796.259)
Progression : [   163;129156] (Error: 791.368)
Progression : [   164;129156] (Error: 786.537)
Progression : [   165;129156] (Error: 781.764)
Progression : [   166;129156] (Error: 777.048)
Progression : [   167;129156] (Error: 772.389)
Progression : [   168;129156] (Error: 767.786)
Progression : [   169;129156] (Error: 763.237)
Progression : [   170;129156] (Error: 758.741)
Progression : [   171;129156] (Error: 754.298)
Progression : [   172;129156] (Error: 749.907)
Progression : [   173;129156] (Error: 745.566)
Progression : [   174;129156] (Error: 741.276)
Progression : [   175;129156] (Error: 737.034)
Progression : [   176;129156] (Error: 732.841)
Progression : [   177;129156] (Error: 728.695)
Progression : [   178;129156] (Error: 724.596)
Progression : [   179;129156] (Error: 720.542)
Progression : [   180;129156] (Error: 716.533)
Progression : [   181;129156] (Error: 712.569)
Progression : [   182;129156] (Error: 708.648)
Progression : [   183;129156] (Error: 704.77)
Progression : [   184;129156] (Error: 700.935)
Progression : [   185;129156] (Error: 697.141)
Progression : [   186;129156] (Error: 693.387)
Progression : [   187;129156] (Error: 689.674)
Progression : [   188;129156] (Error: 686)
Progression : [   189;129156] (Error: 682.365)
Progression : [   190;129156] (Error: 678.768)
Progression : [   191;129156] (Error: 675.209)
Progression : [   192;129156] (Error: 671.688)
Progression : [   193;129156] (Error: 668.202)
Progression : [   194;129156] (Error: 664.753)
Progression : [   195;129156] (Error: 661.338)
Progression : [   196;129156] (Error: 657.959)
Progression : [   197;129156] (Error: 654.614)
Progression : [   198;129156] (Error: 651.303)
Progression : [   199;129156] (Error: 648.025)
Progression : [   200;129156] (Error: 644.78)
Progression : [   201;129156] (Error: 641.567)
Progression : [   202;129156] (Error: 638.386)
Progression : [   203;129156] (Error: 635.236)
Progression : [   204;129156] (Error: 632.118)
Progression : [   205;129156] (Error: 629.029)
Progression : [   206;129156] (Error: 625.971)
Progression : [   207;129156] (Error: 622.942)
Progression : [   208;129156] (Error: 619.942)
Progression : [   209;129156] (Error: 616.971)
Progression : [   210;129156] (Error: 614.029)
Progression : [   211;129156] (Error: 611.114)
Progression : [   212;129156] (Error: 608.226)
Progression : [   213;129156] (Error: 605.366)
Progression : [   214;129156] (Error: 602.533)
Progression : [   215;129156] (Error: 599.726)
Progression : [   216;129156] (Error: 596.944)
Progression : [   217;129156] (Error: 594.189)
Progression : [   218;129156] (Error: 591.459)
Progression : [   219;129156] (Error: 588.753)
Progression : [   220;129156] (Error: 586.073)
Progression : [   221;129156] (Error: 583.416)
Progression : [   222;129156] (Error: 580.784)
Progression : [   223;129156] (Error: 578.175)
Progression : [   224;129156] (Error: 575.589)
Progression : [   225;129156] (Error: 573.027)
Progression : [   226;129156] (Error: 570.487)
Progression : [   227;129156] (Error: 567.969)
Progression : [   228;129156] (Error: 565.474)
Progression : [   229;129156] (Error: 563)
Progression : [   230;129156] (Error: 560.548)
Progression : [   231;129156] (Error: 558.117)
Progression : [   232;129156] (Error: 555.707)
Progression : [   233;129156] (Error: 553.318)
Progression : [   234;129156] (Error: 550.949)
Progression : [   235;129156] (Error: 548.6)
Progression : [   236;129156] (Error: 546.271)
Progression : [   237;129156] (Error: 543.962)
Progression : [   238;129156] (Error: 541.672)
Progression : [   239;129156] (Error: 539.402)
Progression : [   240;129156] (Error: 537.15)
Progression : [   241;129156] (Error: 534.917)
Progression : [   242;129156] (Error: 532.702)
Progression : [   243;129156] (Error: 530.506)
Progression : [   244;129156] (Error: 528.328)
Progression : [   245;129156] (Error: 526.167)
Progression : [   246;129156] (Error: 524.024)
Progression : [   247;129156] (Error: 521.899)
Progression : [   248;129156] (Error: 519.79)
Progression : [   249;129156] (Error: 517.699)
Progression : [   250;129156] (Error: 515.624)
Progression : [   251;129156] (Error: 513.566)
Progression : [   252;129156] (Error: 511.524)
Progression : [   253;129156] (Error: 509.498)
Progression : [   254;129156] (Error: 507.488)
Progression : [   255;129156] (Error: 505.494)
Progression : [   256;129156] (Error: 503.516)
Progression : [   257;129156] (Error: 501.553)
Progression : [   258;129156] (Error: 499.605)
Progression : [   259;129156] (Error: 497.672)
Progression : [   260;129156] (Error: 495.754)
Progression : [   261;129156] (Error: 493.851)
Progression : [   262;129156] (Error: 491.962)
Progression : [   263;129156] (Error: 490.087)
Progression : [   264;129156] (Error: 488.227)
Progression : [   265;129156] (Error: 486.381)
Progression : [   266;129156] (Error: 484.549)
Progression : [   267;129156] (Error: 482.73)
Progression : [   268;129156] (Error: 480.925)
Progression : [   269;129156] (Error: 479.134)
Progression : [   270;129156] (Error: 477.356)
Progression : [   271;129156] (Error: 475.59)
Progression : [   272;129156] (Error: 473.838)
Progression : [   273;129156] (Error: 472.099)
Progression : [   274;129156] (Error: 470.372)
Progression : [   275;129156] (Error: 468.658)
Progression : [   276;129156] (Error: 466.957)
Progression : [   277;129156] (Error: 465.267)
Progression : [   278;129156] (Error: 463.59)
Progression : [   279;129156] (Error: 461.925)
Progression : [   280;129156] (Error: 460.271)
Progression : [   281;129156] (Error: 458.63)
Progression : [   282;129156] (Error: 457)
Progression : [   283;129156] (Error: 455.382)
Progression : [   284;129156] (Error: 453.775)
Progression : [   285;129156] (Error: 452.179)
Progression : [   286;129156] (Error: 450.594)
Progression : [   287;129156] (Error: 449.021)
Progression : [   288;129156] (Error: 447.458)
Progression : [   289;129156] (Error: 445.907)
Progression : [   290;129156] (Error: 444.366)
Progression : [   291;129156] (Error: 442.835)
Progression : [   292;129156] (Error: 441.315)
Progression : [   293;129156] (Error: 439.805)
Progression : [   294;129156] (Error: 438.306)
Progression : [   295;129156] (Error: 436.817)
Progression : [   296;129156] (Error: 435.338)
Progression : [   297;129156] (Error: 433.869)
Progression : [   298;129156] (Error: 432.409)
Progression : [   299;129156] (Error: 430.96)
Progression : [   300;129156] (Error: 429.52)
Progression : [   301;129156] (Error: 428.09)
Progression : [   302;129156] (Error: 426.669)
Progression : [   303;129156] (Error: 425.257)
Progression : [   304;129156] (Error: 423.855)
Progression : [   305;129156] (Error: 422.462)
Progression : [   306;129156] (Error: 421.078)
Progression : [   307;129156] (Error: 419.704)
Progression : [   308;129156] (Error: 418.338)
Progression : [   309;129156] (Error: 416.981)
Progression : [   310;129156] (Error: 415.632)
Progression : [   311;129156] (Error: 414.293)
Progression : [   312;129156] (Error: 412.962)
Progression : [   313;129156] (Error: 411.639)
Progression : [   314;129156] (Error: 410.325)
Progression : [   315;129156] (Error: 409.019)
Progression : [   316;129156] (Error: 407.722)
Progression : [   317;129156] (Error: 406.432)
Progression : [   318;129156] (Error: 405.151)
Progression : [   319;129156] (Error: 403.878)
Progression : [   320;129156] (Error: 402.613)
Progression : [   321;129156] (Error: 401.355)
Progression : [   322;129156] (Error: 400.106)
Progression : [   323;129156] (Error: 398.864)
Progression : [   324;129156] (Error: 397.63)
Progression : [   325;129156] (Error: 396.403)
Progression : [   326;129156] (Error: 395.184)
Progression : [   327;129156] (Error: 393.972)
Progression : [   328;129156] (Error: 392.768)
Progression : [   329;129156] (Error: 391.571)
Progression : [   330;129156] (Error: 390.382)
Progression : [   331;129156] (Error: 389.199)
Progression : [   332;129156] (Error: 388.024)
Progression : [   333;129156] (Error: 386.856)
Progression : [   334;129156] (Error: 385.695)
Progression : [   335;129156] (Error: 384.54)
Progression : [   336;129156] (Error: 383.393)
Progression : [   337;129156] (Error: 382.252)
Progression : [   338;129156] (Error: 381.118)
Progression : [   339;129156] (Error: 379.991)
Progression : [   340;129156] (Error: 378.871)
Progression : [   341;129156] (Error: 377.757)
Progression : [   342;129156] (Error: 376.649)
Progression : [   343;129156] (Error: 375.548)
Progression : [   344;129156] (Error: 374.453)
Progression : [   345;129156] (Error: 373.365)
Progression : [   346;129156] (Error: 372.283)
Progression : [   347;129156] (Error: 371.207)
Progression : [   348;129156] (Error: 370.138)
Progression : [   349;129156] (Error: 369.074)
Progression : [   350;129156] (Error: 368.017)
Progression : [   351;129156] (Error: 366.966)
Progression : [   352;129156] (Error: 365.92)
Progression : [   353;129156] (Error: 364.881)
Progression : [   354;129156] (Error: 363.847)
Progression : [   355;129156] (Error: 362.82)
Progression : [   356;129156] (Error: 361.798)
Progression : [   357;129156] (Error: 360.782)
Progression : [   358;129156] (Error: 359.771)
Progression : [   359;129156] (Error: 358.766)
Progression : [   360;129156] (Error: 357.767)
Progression : [   361;129156] (Error: 356.773)
Progression : [   362;129156] (Error: 355.785)
Progression : [   363;129156] (Error: 354.802)
Progression : [   364;129156] (Error: 353.824)
Progression : [   365;129156] (Error: 352.852)
Progression : [   366;129156] (Error: 351.885)
Progression : [   367;129156] (Error: 350.924)
Progression : [   368;129156] (Error: 349.967)
Progression : [   369;129156] (Error: 349.016)
Progression : [   370;129156] (Error: 348.07)
Progression : [   371;129156] (Error: 347.129)
Progression : [   372;129156] (Error: 346.194)
Progression : [   373;129156] (Error: 345.263)
Progression : [   374;129156] (Error: 344.337)
Progression : [   375;129156] (Error: 343.416)
Progression : [   376;129156] (Error: 342.5)
Progression : [   377;129156] (Error: 341.589)
Progression : [   378;129156] (Error: 340.683)
Progression : [   379;129156] (Error: 339.781)
Progression : [   380;129156] (Error: 338.884)
Progression : [   381;129156] (Error: 337.992)
Progression : [   382;129156] (Error: 337.105)
Progression : [   383;129156] (Error: 336.222)
Progression : [   384;129156] (Error: 335.344)
Progression : [   385;129156] (Error: 334.47)
Progression : [   386;129156] (Error: 333.601)
Progression : [   387;129156] (Error: 332.736)
Progression : [   388;129156] (Error: 331.876)
Progression : [   389;129156] (Error: 331.021)
Progression : [   390;129156] (Error: 330.169)
Progression : [   391;129156] (Error: 329.322)
Progression : [   392;129156] (Error: 328.48)
Progression : [   393;129156] (Error: 327.641)
Progression : [   394;129156] (Error: 326.807)
Progression : [   395;129156] (Error: 325.977)
Progression : [   396;129156] (Error: 325.152)
Progression : [   397;129156] (Error: 324.33)
Progression : [   398;129156] (Error: 323.513)
Progression : [   399;129156] (Error: 322.699)
Progression : [   400;129156] (Error: 321.89)
Progression : [   401;129156] (Error: 321.085)
Progression : [   402;129156] (Error: 320.284)
Progression : [   403;129156] (Error: 319.486)
Progression : [   404;129156] (Error: 318.693)
Progression : [   405;129156] (Error: 317.904)
Progression : [   406;129156] (Error: 317.118)
Progression : [   407;129156] (Error: 316.337)
Progression : [   408;129156] (Error: 315.559)
Progression : [   409;129156] (Error: 314.785)
Progression : [   410;129156] (Error: 314.015)
Progression : [   411;129156] (Error: 313.248)
Progression : [   412;129156] (Error: 312.485)
Progression : [   413;129156] (Error: 311.726)
Progression : [   414;129156] (Error: 310.971)
Progression : [   415;129156] (Error: 310.219)
Progression : [   416;129156] (Error: 309.471)
Progression : [   417;129156] (Error: 308.727)
Progression : [   418;129156] (Error: 307.986)
Progression : [   419;129156] (Error: 307.248)
Progression : [   420;129156] (Error: 306.514)
Progression : [   421;129156] (Error: 305.784)
Progression : [   422;129156] (Error: 305.057)
Progression : [   423;129156] (Error: 304.333)
Progression : [   424;129156] (Error: 303.613)
Progression : [   425;129156] (Error: 302.896)
Progression : [   426;129156] (Error: 302.183)
Progression : [   427;129156] (Error: 301.473)
Progression : [   428;129156] (Error: 300.766)
Progression : [   429;129156] (Error: 300.063)
Progression : [   430;129156] (Error: 299.363)
Progression : [   431;129156] (Error: 298.666)
Progression : [   432;129156] (Error: 297.972)
Progression : [   433;129156] (Error: 297.282)
Progression : [   434;129156] (Error: 296.594)
Progression : [   435;129156] (Error: 295.91)
Progression : [   436;129156] (Error: 295.229)
Progression : [   437;129156] (Error: 294.551)
Progression : [   438;129156] (Error: 293.877)
Progression : [   439;129156] (Error: 293.205)
Progression : [   440;129156] (Error: 292.536)
Progression : [   441;129156] (Error: 291.871)
Progression : [   442;129156] (Error: 291.208)
Progression : [   443;129156] (Error: 290.549)
Progression : [   444;129156] (Error: 289.892)
Progression : [   445;129156] (Error: 289.238)
Progression : [   446;129156] (Error: 288.587)
Progression : [   447;129156] (Error: 287.94)
Progression : [   448;129156] (Error: 287.295)
Progression : [   449;129156] (Error: 286.653)
Progression : [   450;129156] (Error: 286.013)
Progression : [   451;129156] (Error: 285.377)
Progression : [   452;129156] (Error: 284.743)
Progression : [   453;129156] (Error: 284.113)
Progression : [   454;129156] (Error: 283.485)
Progression : [   455;129156] (Error: 282.859)
Optimization: 129154
Optimization: 129153
Progression : [   456;129153] (Error: 282.23)
Progression : [   457;129153] (Error: 281.611)
Progression : [   458;129153] (Error: 280.993)
Progression : [   459;129153] (Error: 280.379)
Progression : [   460;129153] (Error: 279.767)
Progression : [   461;129153] (Error: 279.158)
Progression : [   462;129153] (Error: 278.552)
Progression : [   463;129153] (Error: 277.948)
Progression : [   464;129153] (Error: 277.347)
Progression : [   465;129153] (Error: 276.748)
Progression : [   466;129153] (Error: 276.152)
Progression : [   467;129153] (Error: 275.559)
Progression : [   468;129153] (Error: 274.968)
Progression : [   469;129153] (Error: 274.38)
Progression : [   470;129153] (Error: 273.794)
Progression : [   471;129153] (Error: 273.21)
Progression : [   472;129153] (Error: 272.629)
Progression : [   473;129153] (Error: 272.051)
Progression : [   474;129153] (Error: 271.475)
Progression : [   475;129153] (Error: 270.901)
Progression : [   476;129153] (Error: 270.33)
Progression : [   477;129153] (Error: 269.761)
Progression : [   478;129153] (Error: 269.195)
Progression : [   479;129153] (Error: 268.63)
Progression : [   480;129153] (Error: 268.069)
Progression : [   481;129153] (Error: 267.509)
Progression : [   482;129153] (Error: 266.952)
Progression : [   483;129153] (Error: 266.398)
Progression : [   484;129153] (Error: 265.845)
Progression : [   485;129153] (Error: 265.295)
Progression : [   486;129153] (Error: 264.747)
Progression : [   487;129153] (Error: 264.201)
Progression : [   488;129153] (Error: 263.658)
Progression : [   489;129153] (Error: 263.117)
Progression : [   490;129153] (Error: 262.578)
Progression : [   491;129153] (Error: 262.041)
Progression : [   492;129153] (Error: 261.506)
Progression : [   493;129153] (Error: 260.974)
Progression : [   494;129153] (Error: 260.443)
Progression : [   495;129153] (Error: 259.915)
Progression : [   496;129153] (Error: 259.389)
Progression : [   497;129153] (Error: 258.865)
Progression : [   498;129153] (Error: 258.343)
Progression : [   499;129153] (Error: 257.824)
Progression : [   500;129153] (Error: 257.306)
Optimization: 129152
Progression : [   501;129152] (Error: 256.788)
Progression : [   502;129152] (Error: 256.275)
Progression : [   503;129152] (Error: 255.763)
Progression : [   504;129152] (Error: 255.254)
Progression : [   505;129152] (Error: 254.747)
Progression : [   506;129152] (Error: 254.241)
Progression : [   507;129152] (Error: 253.738)
Progression : [   508;129152] (Error: 253.236)
Progression : [   509;129152] (Error: 252.737)
SATISFIABLE

TIME LIMIT   : 1
Models       : 103+
  Optimum    : unknown
Optimization : 129152
Bounds       : [509;129152]
Calls        : 1
Time         : 3600.255s (Solving: 3600.21s 1st Model: 0.03s Unsat: 0.00s)
CPU Time     : 71985.622s
Threads      : 20       (Winner: 20)
elapsed time for 3-Insertions_3-k_8 was 3600.490538275 seconds
